(set-logic QF_NRA)
(declare-fun y1 () Real)
(declare-fun y12 () Real)
(declare-fun y23 () Real)
(declare-fun y34 () Real)
(declare-fun y41 () Real)
(assert
(and
(and (<= (/ 25854 10000) y1) (<= y1 (/ 26508 10000)))(and (<= 2 y12) (<= y12 (/ 246350884418 100000000000)))(and (<= 2 y23) (<= y23 (/ 246350884418 100000000000)))(and (<= 2 y34) (<= y34 (/ 246350884418 100000000000)))(and (<= 2 y41) (<= y41 (/ 246350884418 100000000000)))(not (< (+ (* 2 (* (/ 314159265 100000000) (/ 128506 1000000))) (+ (* (+ (- (/ 066254 1000000)) (+ (/ 234791 1000000) (+ (- (/ 097658 1000000)) (- (/ 070878 1000000))))) y1) (+ (* 2 (* (+ (/ 003287 1000000) (- (/ 003287 1000000))) y12)) (+ (* 2 (* (+ (- (/ 003287 1000000)) (/ 003287 1000000)) y23)) (+ (* 2 (* (+ (/ 003287 1000000) (- (/ 003287 1000000))) y34)) (+ (* 2 (* (+ (- (/ 003287 1000000)) (/ 003287 1000000)) y41)) (+ (- (/ 104563 1000000)) (+ (- (/ 786309 1000000)) (+ (/ 050047 1000000) (/ 033394 1000000)))))))))) 0)))
)
(check-sat)
(exit)
